; benchmark generated from python API
(set-info :status unknown)
(declare-datatypes ((RealState 0)) (((RMk1 (rval1 Real)) (RMk2 (rval2 Real)))))
 (declare-fun ep () Real)
(declare-fun V () Real)
(declare-fun v2uscore1dollarskuscore566 () Real)
(declare-fun v1uscore1dollarskuscore566 () Real)
(declare-fun t1942uscore0 () Real)
(declare-fun x1uscore1dollarskuscore367 () Real)
(declare-fun xI1 () Real)
(declare-fun x2uscore1dollarskuscore401 () Real)
(declare-fun xI2 () Real)
(declare-fun A () Real)
(declare-fun v2 () Real)
(declare-fun v1 () Real)
(declare-fun B () Real)
(declare-fun x2 () Real)
(declare-fun I2 () Real)
(declare-fun x1 () Real)
(declare-fun I1 () Real)
(declare-fun I2uscore1dollarskuscore566 () Real)
(declare-fun I1uscore1dollarskuscore566 () Real)
(assert
 (let (($x76 (exists ((ts1942uscore0_st RealState) (val!113 Real) )(let (($x112 (or (= 1.0 2.0) (= 2.0 2.0))))
 (let (($x66 (and (>= v1uscore1dollarskuscore566 0.0) (<= v1uscore1dollarskuscore566 V))))
 (let (($x72 (and (and $x66 (>= v2uscore1dollarskuscore566 0.0)) (<= v2uscore1dollarskuscore566 V))))
 (let (($x161 (=> (and (<= 0.0 (rval2 ts1942uscore0_st)) (<= (rval2 ts1942uscore0_st) t1942uscore0)) (and $x72 (<= (+ (rval2 ts1942uscore0_st) 0.0) ep)))))
 (let (($x185 (>= t1942uscore0 0.0)))
 (let (($x97 (or (= xI2 x2uscore1dollarskuscore401) (= xI1 x1uscore1dollarskuscore367))))
 (let (($x215 (and (= v2uscore1dollarskuscore566 0.0) (= v1uscore1dollarskuscore566 0.0))))
 (let (($x159 (and (and $x215 (= I2uscore1dollarskuscore566 1.0)) (< xI2 x2uscore1dollarskuscore401))))
 (let (($x108 (and (and $x159 (= I1uscore1dollarskuscore566 0.0)) (= I2uscore1dollarskuscore566 2.0))))
 (let (($x156 (and (and (and $x108 (= I1 2.0)) (< xI1 x1)) (= I2 2.0))))
 (let (($x128 (and (and (and $x156 (< xI2 x2)) (> B 0.0)) (>= v1 0.0))))
 (let (($x63 (and (and (and (and $x128 (<= v1 V)) (>= v2 0.0)) (<= v2 V)) (>= A 0.0))))
 (let (($x167 (and (and $x63 (> V 0.0)) (> ep 0.0))))
 (let (($x94 (not (= ts1942uscore0_st (RMk1 val!113)))))
 (and $x94 (=> $x167 (or $x97 (=> (and $x185 $x161) $x112)))))))))))))))))))
 ))
 (not $x76)))
(check-sat)
